p tw 20 53
0 1
0 19
0 12
0 3
0 7
1 2
1 7
1 5
2 9
2 15
2 4
2 6
2 11
3 4
3 15
3 17
3 10
3 7
4 7
4 15
4 12
4 13
4 17
5 6
5 19
5 16
5 9
5 17
5 13
6 8
6 12
7 8
7 12
7 11
8 14
9 10
9 15
9 17
9 12
9 13
9 14
11 12
11 13
12 18
12 17
13 14
13 16
13 19
14 18
14 19
15 19
16 17
17 19
